50 47 50 52 41 49 41 54 46 42 52 50 59 47 55 47 58 51 47 48 58 51 47 46 52 52 56 62 52 51 55 54 51 43 50 48 42 53 57 54 46 52 46 47 61 54 50 47 45 47 54 45 52 50 56 54 48 52 45 63 60 57 37 46 54 49 45 54 45 48 47 45 46 47 50 50 48 55 54 44 47 47 51 47 56 47 46 53 54 48 55 50 50 48 49 43 53 48 50 49 